benchmarks_vrp/CMT3/fixed_c_size/CMT3_5.vrp
NAME: CMT3_5
TYPE: CVRP
COMMENT: 826.14 - Cluster Nr.5
DIMENSION: 13
CAPACITY: 200
EDGE_WEIGHT_TYPE: EUC_2D
NODE_COORD_TYPE: TWOD_COORDS
NODE_COORD_SECTION: 
12 6 68
4 20 65
13 20 50
3 8 56
1 10 43
9 15 60
10 15 77
11 6 38
8 15 47
6 13 52
5 2 60
2 35 35
7 2 48
DEPOT_SECTION: 
2
-1
DEMAND_SECTION: 
7 1
4 12
12 30
5 5
1 9
11 16
10 9
8 16
3 27
13 5
2 0
6 36
9 17
EOF
