benchmarks_vrp/CMT3/fixed_c_size/CMT3_5.tour
NAME: CMT3_5 solution
TYPE: TOUR
TOUR_SECTION:
2 8 1 11 7 3 5 12 10 4 9 6 13 -1
-1
EOF